Version identifier: 12.10.0.0 | 2019-11-26 | 843d4de
CPXPARAM_WorkMem                                 28672
Tried aggregator 2 times.
MIP Presolve modified 74 coefficients.
Aggregator did 45 substitutions.
Reduced MIP has 245 rows, 300 columns, and 1155 nonzeros.
Reduced MIP has 300 binaries, 0 generals, 0 SOSs, and 0 indicators.
Presolve time = 0,00 sec. (1,56 ticks)
Found incumbent of value 225,000000 after 0,01 sec. (2,40 ticks)
Probing time = 0,00 sec. (0,45 ticks)
Tried aggregator 1 time.
Detecting symmetries...
MIP Presolve eliminated 55 rows and 0 columns.
MIP Presolve added 110 rows and 0 columns.
Reduced MIP has 300 rows, 300 columns, and 1210 nonzeros.
Reduced MIP has 300 binaries, 0 generals, 0 SOSs, and 0 indicators.
Presolve time = 0,00 sec. (1,48 ticks)
Probing time = 0,00 sec. (0,43 ticks)
Clique table members: 795.
MIP emphasis: balance optimality and feasibility.
MIP search method: dynamic search.
Parallel mode: deterministic, using up to 16 threads.
Root relaxation solution time = 0,00 sec. (1,60 ticks)

        Nodes                                         Cuts/
   Node  Left     Objective  IInf  Best Integer    Best Bound    ItCnt     Gap

*     0+    0                          225,0000        0,0000           100,00%
*     0+    0                          113,0000        0,0000           100,00%
*     0+    0                          105,0000        0,0000           100,00%
*     0+    0                          102,0000        0,0000           100,00%
      0     0       48,5417   149      102,0000       48,5417      192   52,41%
      0     0       49,2576   149      102,0000     Cuts: 175      298   51,71%
      0     0       50,6776   149      102,0000     Cuts: 175      370   50,32%
      0     0       51,0295   149      102,0000     Cuts: 175      419   49,97%
      0     0       51,4656   149      102,0000     Cuts: 174      467   49,54%
      0     0       51,6160   149      102,0000     Cuts: 132      507   49,40%
      0     0       51,8711   149      102,0000     Cuts: 114      549   49,15%
      0     0       52,1585   149      102,0000     Cuts: 115      604   48,86%
      0     0       52,3280   149      102,0000     Cuts: 119      681   48,70%
      0     0       52,5780   149      102,0000     Cuts: 110      786   48,45%
*     0+    0                           98,0000       52,5780            46,35%
      0     0       52,7539   149       98,0000      Cuts: 70      884   46,17%
      0     0       53,3995   149       98,0000     Cuts: 103     1062   45,51%
      0     0       53,7600   149       98,0000     Cuts: 122     1191   45,14%
      0     0       53,9292   149       98,0000     Cuts: 129     1296   44,97%
      0     0       54,0516   149       98,0000      Cuts: 84     1402   44,85%
      0     0       54,3011   149       98,0000      Cuts: 75     1508   44,59%
      0     0       54,4193   149       98,0000     Cuts: 103     1621   43,85%
      0     0       55,0766   149       98,0000      Cuts: 97     1873   43,80%
      0     0       55,3030   149       98,0000     Cuts: 106     2016   43,57%
      0     0       55,4268   149       98,0000      Cuts: 94     2137   43,44%
      0     0       55,5330   149       98,0000      Cuts: 59     2254   43,33%
      0     0       55,6580   149       98,0000      Cuts: 85     2377   38,35%
      0     0       55,7409   149       98,0000      Cuts: 68     2467   38,35%
      0     2       55,7409   300       98,0000       60,4167     2467   38,35%
Elapsed time = 0,67 sec. (423,67 ticks, tree = 0,02 MB, solutions = 5)
   3492  2440       87,0597   161       98,0000       70,3900    93827   28,17%

Performing restart 1

Repeating presolve.
Tried aggregator 1 time.
Reduced MIP has 300 rows, 300 columns, and 1210 nonzeros.
Reduced MIP has 300 binaries, 0 generals, 0 SOSs, and 0 indicators.
Presolve time = 0,00 sec. (0,72 ticks)
Tried aggregator 1 time.
Reduced MIP has 300 rows, 300 columns, and 1210 nonzeros.
Reduced MIP has 300 binaries, 0 generals, 0 SOSs, and 0 indicators.
Presolve time = 0,00 sec. (1,02 ticks)
Represolve time = 0,02 sec. (11,29 ticks)
   4465     0       56,4630   300       98,0000      Cuts: 50   146671   19,79%
   4465     0       56,6968   300       98,0000      Cuts: 67   146843   19,79%
   4465     0       56,7845   300       98,0000      Cuts: 87   146968   19,79%
   4465     0       56,9333   300       98,0000      Cuts: 51   147105   19,79%
   4465     0       57,0448   300       98,0000      Cuts: 84   147235   19,79%
   4465     2       57,0448   300       98,0000       78,6042   147235   19,79%
   4478     8       64,5501   279       98,0000       78,6042   149134   19,79%
   5491   672       96,4627    94       98,0000       78,6042   193134   19,79%
   7193  1662       94,9639   115       98,0000       78,6042   234427   19,79%
   9520  3742       85,8431   200       98,0000       78,6042   306793   19,79%

Performing restart 2

Repeating presolve.
Tried aggregator 1 time.
Reduced MIP has 300 rows, 300 columns, and 1210 nonzeros.
Reduced MIP has 300 binaries, 0 generals, 0 SOSs, and 0 indicators.
Presolve time = 0,00 sec. (0,72 ticks)
Tried aggregator 1 time.
Reduced MIP has 300 rows, 300 columns, and 1210 nonzeros.
Reduced MIP has 300 binaries, 0 generals, 0 SOSs, and 0 indicators.
Presolve time = 0,00 sec. (1,02 ticks)
Represolve time = 0,03 sec. (17,33 ticks)
  10304     0       57,1930   300       98,0000      Cuts: 41   348985   19,79%
  10304     0       57,2613   300       98,0000      Cuts: 31   349102   19,79%
  10304     0       57,3119   300       98,0000      Cuts: 60   349203   19,79%
  10304     0       57,3382   300       98,0000      Cuts: 53   349291   19,79%
  10304     0       57,3542   300       98,0000      Cuts: 39   349383   19,79%
  10304     0       57,3722   300       98,0000      Cuts: 35   349483   19,79%
  10304     2       57,3722   299       98,0000       78,6042   349483   19,79%
  12669  1564       91,2275   147       98,0000       78,6042   407900   19,79%
  14568  2673       91,4716   183       98,0000       78,6042   502306   19,79%
  23205  2156    infeasible             98,0000       93,5833   932665    4,51%
Elapsed time = 5,92 sec. (4679,52 ticks, tree = 0,95 MB, solutions = 5)

Clique cuts applied:  31
Cover cuts applied:  341
Flow cuts applied:  2
Mixed integer rounding cuts applied:  150
Zero-half cuts applied:  102
Lift and project cuts applied:  31
Gomory fractional cuts applied:  10

Root node processing (before b&c):
  Real time             =    0,66 sec. (423,06 ticks)
Parallel b&c, 16 threads:
  Real time             =    5,64 sec. (4367,84 ticks)
  Sync time (average)   =    1,37 sec.
  Wait time (average)   =    0,01 sec.
                          ------------
Total (root+branch&cut) =    6,31 sec. (4790,89 ticks)
